c   #vars: 70   #clauses: 313   #literals: 862
c 
p cnf 70 313
-1 -2 0
-3 -4 0
-5 -6 0
-7 -8 0
-9 -10 0
-12 -13 0
-14 -15 0
18 34 35 -59 0
-16 -17 0
3 4 38 39 0
38 39 56 57 0
-19 -20 0
-21 -22 0
5 6 64 65 0
21 22 -32 58 0
5 6 66 67 0
19 20 66 67 0
-24 -25 0
-26 -27 0
-28 -29 0
-30 -31 0
-32 -33 0
-34 -35 0
45 46 64 65 0
-36 -37 0
-38 -39 0
-40 -41 0
7 8 -32 53 0
-43 -44 0
1 2 36 37 0
-45 -46 0
-47 -48 0
-49 -50 0
-51 -52 0
-21 32 33 58 0
3 4 43 44 0
7 8 43 44 0
-54 -55 0
-56 -57 0
5 6 -45 61 0
21 22 51 52 0
-59 -60 0
12 13 28 29 0
19 20 -38 70 0
-62 -63 0
-64 -65 0
9 10 62 63 0
9 10 32 33 0
-66 -67 0
-68 -69 0
11 -40 62 63 0
-12 23 66 67 0
-1 -36 0
-2 -37 0
3 4 26 27 0
-1 -38 0
-2 -39 0
-1 -49 0
-2 -50 0
5 6 51 52 0
-1 -54 0
-2 -55 0
19 20 49 50 0
-1 -68 0
-2 -69 0
-3 -26 0
-4 -27 0
-28 38 39 70 0
-3 -38 0
-4 -39 0
11 -24 62 63 0
-3 -40 0
-4 -41 0
-3 -43 0
-4 -44 0
45 46 59 60 0
-3 -64 0
-4 -65 0
12 13 23 -66 0
-5 -32 0
-6 -33 0
-5 -51 0
-6 -52 0
3 4 40 41 0
19 20 -28 70 0
-6 -61 0
-5 -64 0
-6 -65 0
36 37 62 63 0
-5 -66 0
-6 -67 0
16 17 26 27 0
-8 -23 0
-7 -28 0
-8 -29 0
-7 -30 0
-8 -31 0
14 15 34 35 0
-7 -43 0
-8 -44 0
-7 12 13 23 0
-19 32 33 58 0
-8 -53 0
14 15 36 37 0
-7 -54 0
-8 -55 0
-9 -30 0
-10 -31 0
-9 -32 0
-10 -33 0
12 13 66 67 0
11 40 41 -62 0
21 22 47 48 0
42 56 57 -59 0
-9 -51 0
-10 -52 0
-9 -62 0
-10 -63 0
-9 -64 0
-10 -65 0
-11 -25 0
11 -24 40 41 0
-11 -41 0
1 2 49 50 0
-11 -63 0
12 13 42 -56 0
-12 42 59 60 0
9 10 64 65 0
42 -56 59 60 0
-19 38 39 70 0
21 22 64 65 0
-13 -23 0
14 15 59 60 0
-12 -28 0
-13 -29 0
1 2 38 39 0
7 8 -16 53 0
-13 -42 0
24 25 66 67 0
-12 -51 0
-13 -52 0
24 25 62 63 0
-12 -59 0
-13 -60 0
9 10 30 31 0
-12 -66 0
-13 -67 0
7 8 30 31 0
-12 -68 0
-13 -69 0
19 20 47 48 0
-14 -34 0
-15 -35 0
-14 -36 0
-15 -37 0
32 33 68 69 0
-14 -43 0
-15 -44 0
5 6 32 33 0
-14 -49 0
-15 -50 0
43 44 -45 61 0
-14 -59 0
-15 -60 0
-19 21 22 58 0
-14 -66 0
-15 -67 0
21 22 24 25 0
18 -26 34 35 0
1 2 54 55 0
45 46 54 55 0
-12 42 56 57 0
18 26 27 -59 0
-16 -26 0
-17 -27 0
18 26 27 -34 0
-16 -30 0
-17 -31 0
18 -34 59 60 0
-16 -47 0
-17 -48 0
7 8 54 55 0
19 20 -32 58 0
-17 -53 0
11 24 25 -62 0
34 35 64 65 0
-18 -27 0
21 22 68 69 0
-18 -35 0
-18 -60 0
16 17 30 31 0
-19 -47 0
-20 -48 0
-19 -49 0
-20 -50 0
5 6 -43 61 0
-20 -58 0
-19 -66 0
-20 -67 0
-7 23 66 67 0
-20 -70 0
24 25 54 55 0
-21 -24 0
-22 -25 0
-21 -28 0
-22 -29 0
47 48 56 57 0
-21 -47 0
-22 -48 0
12 13 59 60 0
-21 -51 0
-22 -52 0
40 41 51 52 0
-43 45 46 61 0
-22 -58 0
-21 -64 0
-22 -65 0
7 8 28 29 0
-21 -68 0
-22 -69 0
9 10 51 52 0
12 13 51 52 0
43 44 54 55 0
21 22 28 29 0
-23 -67 0
14 15 43 44 0
-24 -54 0
-25 -55 0
14 15 66 67 0
-24 -62 0
-25 -63 0
-24 -66 0
-25 -67 0
34 35 54 55 0
-26 -59 0
-27 -60 0
30 31 49 50 0
7 8 23 -66 0
-29 -70 0
-30 -49 0
-31 -50 0
-16 32 33 53 0
19 20 -21 58 0
-33 -53 0
26 27 59 60 0
-5 45 46 61 0
-33 -58 0
-32 -68 0
-33 -69 0
16 17 47 48 0
-34 -49 0
-35 -50 0
-34 -54 0
-35 -55 0
3 4 64 65 0
-34 -64 0
-35 -65 0
-5 43 44 61 0
-36 -51 0
-37 -52 0
38 39 64 65 0
-36 -62 0
-37 -63 0
-38 -49 0
-39 -50 0
1 2 68 69 0
-38 -56 0
-39 -57 0
40 41 56 57 0
-38 -64 0
-39 -65 0
7 8 -12 23 0
-39 -70 0
34 35 49 50 0
38 39 49 50 0
-40 -51 0
-41 -52 0
-40 -56 0
-41 -57 0
14 15 49 50 0
-40 -62 0
-41 -63 0
12 13 68 69 0
12 13 42 -59 0
11 24 25 -40 0
16 17 -32 53 0
-42 -57 0
-7 32 33 53 0
-7 16 17 53 0
-42 -60 0
-43 -51 0
-44 -52 0
43 44 51 52 0
-43 -54 0
-44 -55 0
18 -26 59 60 0
28 29 -38 70 0
-44 -61 0
36 37 51 52 0
-45 -54 0
-46 -55 0
47 48 64 65 0
-45 -59 0
-46 -60 0
-19 28 29 70 0
-46 -61 0
40 41 62 63 0
-45 -64 0
-46 -65 0
-47 -56 0
-48 -57 0
-47 -64 0
-48 -65 0
